(declare-fun var0 () String)
(declare-fun var1 () String)
(declare-fun var2 () String)
(declare-fun var3 () String)
(declare-fun var4 () String)
(declare-fun var5 () String)
(declare-fun var6 () String)
(declare-fun var7 () String)
(declare-fun var8 () String)
(declare-fun var9 () String)
(declare-fun var10 () String)
(declare-fun var11 () String)
(declare-fun var12 () String)
(declare-fun var13 () String)
(declare-fun var14 () String)
(declare-fun var15 () String)
(declare-fun var16 () String)
(declare-fun var17 () String)
(declare-fun var18 () String)
(declare-fun var19 () String)
(declare-fun var20 () String)
(declare-fun var21 () String)
(declare-fun var22 () String)
(declare-fun var23 () String)
(declare-fun var24 () String)
(declare-fun var25 () String)
(declare-fun var26 () String)
(declare-fun var27 () String)
(declare-fun var28 () String)
(declare-fun var29 () String)
(declare-fun var30 () String)
(declare-fun var31 () String)
(declare-fun var32 () String)
(declare-fun var33 () String)
(declare-fun var34 () String)
(declare-fun var35 () String)
(declare-fun var36 () String)
(declare-fun var37 () String)
(declare-fun var38 () String)
(declare-fun var39 () String)
(declare-fun var40 () String)
(declare-fun var41 () String)
(declare-fun var42 () String)
(declare-fun var43 () String)
(declare-fun var44 () String)
(declare-fun var45 () String)
(declare-fun var46 () String)
(declare-fun var47 () String)
(declare-fun var48 () String)
(declare-fun var49 () String)
(declare-fun var50 () String)
(declare-fun var51 () String)
(declare-fun var52 () String)
(declare-fun var53 () String)
(declare-fun var54 () String)
(declare-fun var55 () String)
(declare-fun var56 () String)
(declare-fun var57 () String)
(declare-fun var58 () String)
(declare-fun var59 () String)
(declare-fun var60 () String)
(assert (= var0 (str.++ var1 var2)))
(assert (= var2 (str.++ var3 var4)))
(assert (= var4 (str.++ var5 var6)))
(assert (= var6 (str.++ var7 var8)))
(assert (= var8 (str.++ var9 var10)))
(assert (= var10 (str.++ var11 var12)))
(assert (= var12 (str.++ var13 var14)))
(assert (= var14 (str.++ var15 var16)))
(assert (= var16 (str.++ var17 var18)))
(assert (= var18 (str.++ var19 var20)))
(assert (= var20 (str.++ var21 var22)))
(assert (= var22 (str.++ var23 var24)))
(assert (= var24 (str.++ var25 var26)))
(assert (= var26 (str.++ var27 var28)))
(assert (= var28 (str.++ var29 var30)))
(assert (= var30 (str.++ var31 var32)))
(assert (= var32 (str.++ var33 var34)))
(assert (= var34 (str.++ var35 var36)))
(assert (= var36 (str.++ var37 var38)))
(assert (= var38 (str.++ var39 var40)))
(assert (= var40 (str.++ var41 var42)))
(assert (= var42 (str.++ var43 var44)))
(assert (= var44 (str.++ var45 var46)))
(assert (= var46 (str.++ var47 var48)))
(assert (= var48 (str.++ var49 var50)))
(assert (= var50 (str.++ var51 var52)))
(assert (= var52 (str.++ var53 var54)))
(assert (= var54 (str.++ var55 var56)))
(assert (= var56 (str.++ var57 var58)))
(assert (= var58 (str.++ var59 var60)))
(assert (= var0 "solution"))
(assert (= "7" (str.at var1 749)))
(assert (= "+" (str.at var9 534)))
(assert (= "Y" (str.at var41 888)))
(assert (= "f" (str.at var14 980)))
(assert (= "t" (str.at var46 399)))
(assert (= "o" (str.at var46 1000)))
(assert (= "&" (str.at var46 924)))
(assert (= "n" (str.at var30 928)))
(assert (= "t" (str.at var3 14)))
(assert (= "H" (str.at var5 193)))
(assert (= "$" (str.at var55 279)))
(assert (= "m" (str.at var15 343)))
(assert (= "X" (str.at var43 366)))
(assert (= "H" (str.at var38 649)))
(assert (= "u" (str.at var29 358)))
(assert (= "6" (str.at var46 744)))
(assert (= "\\" (str.at var39 524)))
(assert (= "," (str.at var20 262)))
(assert (= "}" (str.at var41 639)))
(assert (= "+" (str.at var35 541)))
(assert (= "'" (str.at var9 707)))
(assert (= "E" (str.at var48 709)))
(assert (= "I" (str.at var12 909)))
(assert (= "8" (str.at var40 440)))
(assert (= "," (str.at var19 171)))
(assert (= "K" (str.at var27 896)))
(assert (= "H" (str.at var46 836)))
(assert (= "P" (str.at var4 489)))
(assert (= "n" (str.at var2 813)))
(assert (= "3" (str.at var22 378)))
(assert (= "(" (str.at var34 647)))
(assert (= "!" (str.at var35 227)))
(assert (= "[" (str.at var50 148)))
(assert (= "_" (str.at var18 677)))
(assert (= "W" (str.at var32 277)))
(assert (= ";" (str.at var19 275)))
(assert (= "v" (str.at var18 573)))
(assert (= "U" (str.at var30 364)))
(assert (= "Z" (str.at var12 414)))
(assert (= "z" (str.at var60 672)))
(assert (= "r" (str.at var35 1)))
(assert (= "o" (str.at var21 405)))
(assert (= "`" (str.at var51 0)))
(assert (= "*" (str.at var43 798)))
(assert (= "~" (str.at var9 668)))
(assert (= "`" (str.at var42 803)))
(assert (= "k" (str.at var54 766)))
(assert (= "~" (str.at var54 938)))
(assert (= "=" (str.at var17 22)))
(assert (= "$" (str.at var5 463)))
(assert (= "h" (str.at var48 608)))
(assert (= "4" (str.at var42 263)))
(assert (= "u" (str.at var6 186)))
(assert (= "F" (str.at var53 140)))
(assert (= "E" (str.at var4 0)))
(assert (= "j" (str.at var22 77)))
(assert (= "4" (str.at var16 546)))
(assert (= """" (str.at var51 280)))
(assert (= "o" (str.at var24 578)))
(assert (= "U" (str.at var27 656)))
(assert (= "+" (str.at var16 792)))
(assert (= "D" (str.at var37 421)))
(assert (= "G" (str.at var1 435)))
(assert (= "<" (str.at var36 374)))
(assert (= "2" (str.at var20 563)))
(assert (= "D" (str.at var14 421)))
(assert (= "y" (str.at var23 755)))
(assert (= "y" (str.at var35 498)))
(assert (= "^" (str.at var54 598)))
(assert (= "_" (str.at var27 92)))
(assert (= "w" (str.at var19 470)))
(assert (= "(" (str.at var15 186)))
(assert (= "0" (str.at var18 80)))
(assert (= "R" (str.at var25 824)))
(assert (= "N" (str.at var6 599)))
(assert (= "c" (str.at var16 80)))
(assert (= "o" (str.at var19 245)))
(assert (= "y" (str.at var22 704)))
(assert (= "a" (str.at var7 423)))
(assert (= "," (str.at var39 756)))
(assert (= "j" (str.at var25 843)))
(assert (= "M" (str.at var29 325)))
(assert (= "V" (str.at var22 746)))
(assert (= ">" (str.at var4 37)))
(assert (= "E" (str.at var26 557)))
(assert (= "+" (str.at var11 901)))
(assert (= "G" (str.at var23 5)))
(assert (= "h" (str.at var17 998)))
(assert (= "G" (str.at var58 32)))
(assert (= "C" (str.at var39 50)))
(assert (= "0" (str.at var5 602)))
(assert (= "u" (str.at var2 217)))
(assert (= "r" (str.at var19 258)))
(assert (= "8" (str.at var55 761)))
(assert (= "," (str.at var48 633)))
(assert (= "," (str.at var54 987)))
(assert (= "3" (str.at var35 250)))
(assert (= "B" (str.at var10 893)))
(assert (= "M" (str.at var59 62)))
(assert (= "l" (str.at var30 658)))
(assert (= "&" (str.at var37 48)))
(assert (= "U" (str.at var57 433)))
(assert (= "]" (str.at var10 975)))
(assert (= ";" (str.at var37 480)))
(assert (= "s" (str.at var43 631)))
(assert (= "3" (str.at var36 499)))
(assert (= "K" (str.at var20 596)))
(assert (= "z" (str.at var25 932)))
(assert (= "2" (str.at var54 860)))
(assert (= "Y" (str.at var10 816)))
(assert (= "\\" (str.at var58 783)))
(assert (= "*" (str.at var26 992)))
(assert (= "6" (str.at var47 398)))
(assert (= """" (str.at var60 554)))
(assert (= "b" (str.at var29 416)))
(assert (= "o" (str.at var56 81)))
(assert (= "&" (str.at var60 992)))
(assert (= "p" (str.at var48 555)))
(assert (= "t" (str.at var41 243)))
(assert (= "w" (str.at var16 506)))
(assert (= "^" (str.at var0 622)))
(assert (= "$" (str.at var38 608)))
(assert (= "y" (str.at var14 971)))
(assert (= "S" (str.at var34 327)))
(assert (= "@" (str.at var33 294)))
(assert (= ">" (str.at var31 509)))
(assert (= "*" (str.at var28 916)))
(assert (= ";" (str.at var41 281)))
(assert (= "," (str.at var55 679)))
(assert (= "i" (str.at var50 99)))
(assert (= "G" (str.at var20 973)))
(assert (= "{" (str.at var13 244)))
(assert (= "x" (str.at var18 830)))
(assert (= "#" (str.at var17 92)))
(assert (= "(" (str.at var52 918)))
(assert (= "'" (str.at var43 784)))
(assert (= "*" (str.at var38 378)))
(assert (= "'" (str.at var47 17)))
(assert (= "Y" (str.at var52 916)))
(assert (= "F" (str.at var12 732)))
(assert (= "0" (str.at var0 382)))
(assert (= ";" (str.at var44 98)))
(assert (= "~" (str.at var51 163)))
(assert (= "s" (str.at var60 760)))
(assert (= "e" (str.at var49 983)))
(assert (= "D" (str.at var53 917)))
(assert (= "C" (str.at var57 688)))
(assert (= "?" (str.at var15 920)))
(assert (= "S" (str.at var49 784)))
(assert (= "7" (str.at var44 532)))
(assert (= "9" (str.at var31 969)))
(assert (= "q" (str.at var16 401)))
(assert (= "p" (str.at var22 738)))
(assert (= "a" (str.at var56 76)))
(assert (= "." (str.at var34 808)))
(assert (= "x" (str.at var13 492)))
(assert (= "6" (str.at var37 934)))
(assert (= "E" (str.at var19 21)))
(assert (= "U" (str.at var38 773)))
(assert (= "P" (str.at var50 243)))
(assert (= "m" (str.at var31 103)))
(assert (= "b" (str.at var16 444)))
(assert (= "~" (str.at var35 878)))
(assert (= "V" (str.at var21 442)))
(assert (= "," (str.at var26 273)))
(assert (= "!" (str.at var59 667)))
(assert (= "~" (str.at var40 688)))
(assert (= "%" (str.at var9 958)))
(assert (= "d" (str.at var51 726)))
(assert (= "m" (str.at var29 7)))
(assert (= "'" (str.at var13 322)))
(assert (= "p" (str.at var23 941)))
(assert (= "W" (str.at var29 916)))
(assert (= "K" (str.at var26 684)))
(assert (= "X" (str.at var50 599)))
(assert (= "n" (str.at var35 442)))
(assert (= "X" (str.at var40 344)))
(assert (= "F" (str.at var56 995)))
(assert (= "R" (str.at var43 656)))
(assert (= "_" (str.at var60 52)))
(assert (= ")" (str.at var58 802)))
(assert (= "a" (str.at var8 920)))
(assert (= "I" (str.at var54 969)))
(assert (= "/" (str.at var17 687)))
(assert (= "j" (str.at var18 518)))
(assert (= "f" (str.at var13 377)))
(assert (= "N" (str.at var1 619)))
(assert (= "4" (str.at var36 179)))
(assert (= "r" (str.at var34 770)))
(assert (= "j" (str.at var57 967)))
(assert (= "7" (str.at var52 662)))
(assert (= "`" (str.at var25 89)))
(assert (= "`" (str.at var38 585)))
(assert (= "o" (str.at var31 701)))
(assert (= "," (str.at var0 429)))
(assert (= "F" (str.at var34 29)))
(assert (= "S" (str.at var37 304)))
(assert (= "I" (str.at var48 415)))
(assert (= "7" (str.at var35 5)))
(assert (= "O" (str.at var37 360)))
(assert (= "1" (str.at var10 697)))
(assert (= "y" (str.at var56 214)))
(assert (= "{" (str.at var31 458)))
(assert (= "H" (str.at var51 306)))
(assert (= "n" (str.at var47 830)))
(assert (= "N" (str.at var14 492)))
(assert (= "m" (str.at var20 400)))
(assert (= "x" (str.at var54 299)))
(assert (= "`" (str.at var55 79)))
(assert (= "z" (str.at var26 459)))
(assert (= "E" (str.at var14 953)))
(assert (= "r" (str.at var27 133)))
(assert (= "@" (str.at var37 200)))
(assert (= """" (str.at var36 818)))
(assert (= "$" (str.at var54 500)))
(assert (= "u" (str.at var23 782)))
(assert (= "h" (str.at var54 386)))
(assert (= ")" (str.at var18 839)))
(assert (= "Q" (str.at var0 564)))
(assert (= "B" (str.at var20 210)))
(assert (= "M" (str.at var0 802)))
(assert (= "w" (str.at var43 538)))
(assert (= "I" (str.at var4 922)))
(assert (= "|" (str.at var35 44)))
(assert (= "(" (str.at var1 138)))
(assert (= "@" (str.at var16 701)))
(assert (= ":" (str.at var49 145)))
(assert (= "v" (str.at var51 102)))
(assert (= "U" (str.at var40 366)))
(assert (= "b" (str.at var7 153)))
(assert (= "X" (str.at var59 938)))
(assert (= "x" (str.at var32 492)))
(assert (= "S" (str.at var25 255)))
(assert (= "x" (str.at var56 312)))
(assert (= "`" (str.at var48 842)))
(assert (= "0" (str.at var33 350)))
(assert (= "U" (str.at var58 724)))
(assert (= "$" (str.at var24 182)))
(assert (= "<" (str.at var25 199)))
(assert (= "g" (str.at var26 907)))
(assert (= "]" (str.at var59 145)))
(assert (= "Y" (str.at var37 226)))
(assert (= "'" (str.at var56 677)))
(assert (= "W" (str.at var6 120)))
(assert (= "M" (str.at var37 842)))
(assert (= "u" (str.at var15 877)))
(assert (= "~" (str.at var40 326)))
(assert (= ">" (str.at var7 70)))
(assert (= "8" (str.at var40 917)))
(assert (= "," (str.at var15 70)))
(assert (= "$" (str.at var18 91)))
(assert (= "{" (str.at var26 691)))
(assert (= "R" (str.at var2 242)))
(assert (= "h" (str.at var38 711)))
(assert (= "*" (str.at var56 112)))
(assert (= "[" (str.at var1 30)))
(assert (= "t" (str.at var2 88)))
(assert (= ":" (str.at var4 659)))
(assert (= "0" (str.at var15 273)))
(assert (= "E" (str.at var30 939)))
(assert (= "p" (str.at var0 173)))
(assert (= "w" (str.at var39 141)))
(assert (= "M" (str.at var20 79)))
(assert (= "O" (str.at var23 752)))
(assert (= "t" (str.at var25 808)))
(assert (= "<" (str.at var14 358)))
(assert (= "G" (str.at var6 353)))
(assert (= "+" (str.at var38 618)))
(assert (= "#" (str.at var39 217)))
(assert (= "7" (str.at var31 76)))
(assert (= "z" (str.at var30 509)))
(assert (= "/" (str.at var60 657)))
(assert (= "%" (str.at var12 672)))
(assert (= "n" (str.at var5 259)))
(assert (= "l" (str.at var54 445)))
(assert (= "z" (str.at var21 538)))
(assert (= "(" (str.at var22 655)))
(assert (= "6" (str.at var32 252)))
(assert (= "e" (str.at var10 329)))
(assert (= "=" (str.at var48 551)))
(assert (= "D" (str.at var38 625)))
(assert (= "4" (str.at var13 601)))
(assert (= "t" (str.at var48 682)))
(assert (= "T" (str.at var15 601)))
(assert (= "5" (str.at var21 695)))
(assert (= "@" (str.at var39 187)))
(assert (= "\\" (str.at var9 187)))
(assert (= "a" (str.at var19 24)))
(assert (= "Z" (str.at var41 226)))
(assert (= "D" (str.at var60 391)))
(assert (= "&" (str.at var52 791)))
(assert (= "n" (str.at var16 159)))
(assert (= "1" (str.at var41 474)))
(assert (= "p" (str.at var51 61)))
(assert (= "p" (str.at var3 254)))
(assert (= "P" (str.at var44 43)))
(assert (= "g" (str.at var36 111)))
(assert (= "y" (str.at var0 400)))
(assert (= "l" (str.at var42 943)))
(assert (= "!" (str.at var0 12)))
(assert (= "N" (str.at var3 900)))
(assert (= "(" (str.at var5 584)))
(assert (= "7" (str.at var23 345)))
(assert (= "e" (str.at var47 192)))
(assert (= "b" (str.at var15 168)))
(assert (= "T" (str.at var51 784)))
(assert (= "e" (str.at var9 717)))
(assert (= "f" (str.at var37 618)))
(assert (= "\\" (str.at var0 411)))
(assert (= "v" (str.at var14 945)))
(assert (= "y" (str.at var18 250)))
(assert (= "4" (str.at var15 857)))
(assert (= "\\" (str.at var60 598)))
(assert (= "/" (str.at var51 426)))
(assert (= "!" (str.at var55 868)))
(assert (= ":" (str.at var32 261)))
(assert (= "U" (str.at var50 870)))
(assert (= "i" (str.at var40 415)))
(assert (= "e" (str.at var33 910)))
(assert (= "4" (str.at var57 744)))
(assert (= "U" (str.at var36 15)))
(assert (= "<" (str.at var27 927)))
(assert (= "D" (str.at var2 186)))
(assert (= "d" (str.at var51 805)))
(assert (= "/" (str.at var20 97)))
(assert (= "S" (str.at var5 668)))
(assert (= "6" (str.at var52 144)))
(assert (= "J" (str.at var16 643)))
(assert (= "b" (str.at var47 386)))
(assert (= "B" (str.at var51 352)))
(assert (= "_" (str.at var9 582)))
(assert (= "9" (str.at var31 96)))
(assert (= "p" (str.at var40 789)))
(assert (= "~" (str.at var52 344)))
(assert (= "W" (str.at var9 819)))
(assert (= "G" (str.at var7 400)))
(assert (= "!" (str.at var58 703)))
(assert (= "P" (str.at var0 847)))
(assert (= "l" (str.at var51 268)))
(assert (= "`" (str.at var57 740)))
(assert (= "]" (str.at var7 16)))
(assert (= ";" (str.at var8 327)))
(assert (= "m" (str.at var13 66)))
(assert (= "=" (str.at var25 939)))
(assert (= "*" (str.at var8 20)))
(assert (= "W" (str.at var8 426)))
(assert (= "'" (str.at var53 678)))
(assert (= "n" (str.at var10 93)))
(assert (= "^" (str.at var60 694)))
(assert (= "E" (str.at var50 81)))
(assert (= "J" (str.at var11 212)))
(assert (= "9" (str.at var22 581)))
(assert (= ":" (str.at var54 234)))
(assert (= "D" (str.at var49 453)))
(assert (= """" (str.at var6 441)))
(assert (= "m" (str.at var48 417)))
(assert (= "5" (str.at var42 520)))
(assert (= "3" (str.at var52 427)))
(assert (= "D" (str.at var57 365)))
(assert (= "x" (str.at var54 985)))
(assert (= ";" (str.at var30 242)))
(assert (= ">" (str.at var43 413)))
(assert (= "K" (str.at var25 774)))
(assert (= "i" (str.at var9 506)))
(assert (= "k" (str.at var13 930)))
(assert (= "B" (str.at var57 163)))
(assert (= "A" (str.at var44 233)))
(assert (= "n" (str.at var49 179)))
(assert (= "B" (str.at var50 319)))
(assert (= "S" (str.at var57 59)))
(assert (= "/" (str.at var5 308)))
(assert (= "|" (str.at var1 884)))
(assert (= "p" (str.at var35 80)))
(assert (= "n" (str.at var54 217)))
(assert (= "+" (str.at var51 411)))
(assert (= "m" (str.at var56 169)))
(assert (= "k" (str.at var34 491)))
(assert (= "v" (str.at var3 794)))
(assert (= "e" (str.at var38 783)))
(assert (= "e" (str.at var49 783)))
(assert (= "-" (str.at var55 512)))
(assert (= "l" (str.at var23 955)))
(assert (= "{" (str.at var21 161)))
(assert (= "T" (str.at var36 964)))
(assert (= "Z" (str.at var33 96)))
(assert (= "Z" (str.at var52 46)))
(assert (= ">" (str.at var45 620)))
(assert (= "/" (str.at var16 337)))
(assert (= "_" (str.at var52 83)))
(assert (= "/" (str.at var5 657)))
(assert (= "K" (str.at var9 544)))
(assert (= "/" (str.at var33 82)))
(assert (= "?" (str.at var60 437)))
(assert (= "3" (str.at var30 299)))
(assert (= "t" (str.at var4 352)))
(assert (= "E" (str.at var3 974)))
(assert (= ">" (str.at var13 80)))
(assert (= "*" (str.at var53 88)))
(assert (= "y" (str.at var3 948)))
(assert (= "m" (str.at var59 824)))
(assert (= ":" (str.at var2 333)))
(assert (= "`" (str.at var30 152)))
(assert (= "/" (str.at var38 22)))
(assert (= "o" (str.at var46 450)))
(assert (= ")" (str.at var59 719)))
(assert (= "X" (str.at var24 613)))
(assert (= ">" (str.at var32 400)))
(assert (= "%" (str.at var23 852)))
(assert (= "/" (str.at var48 942)))
(assert (= "b" (str.at var8 400)))
(assert (= "}" (str.at var29 205)))
(assert (= "i" (str.at var54 231)))
(assert (= "}" (str.at var57 190)))
(assert (= "[" (str.at var16 433)))
(assert (= "7" (str.at var60 438)))
(assert (= "D" (str.at var41 497)))
(assert (= "c" (str.at var54 116)))
(assert (= "x" (str.at var35 646)))
(assert (= "#" (str.at var1 771)))
(assert (= "r" (str.at var47 906)))
(assert (= "0" (str.at var28 919)))
(assert (= "'" (str.at var0 759)))
(assert (= ";" (str.at var12 13)))
(assert (= "S" (str.at var5 367)))
(assert (= "%" (str.at var8 831)))
(assert (= "d" (str.at var58 265)))
(assert (= "%" (str.at var2 246)))
(assert (= "Q" (str.at var44 88)))
(assert (= "M" (str.at var45 278)))
(assert (= "y" (str.at var54 653)))
(assert (= "J" (str.at var37 302)))
(assert (= "?" (str.at var36 897)))
(assert (= "F" (str.at var53 698)))
(assert (= "x" (str.at var45 778)))
(assert (= "W" (str.at var37 8)))
(assert (= "N" (str.at var42 260)))
(assert (= "v" (str.at var60 835)))
(assert (= "L" (str.at var58 730)))
(assert (= "3" (str.at var40 641)))
(assert (= "b" (str.at var11 244)))
(assert (= "," (str.at var34 691)))
(assert (= "G" (str.at var32 303)))
(assert (= "b" (str.at var33 902)))
(assert (= "C" (str.at var9 923)))
(assert (= "y" (str.at var50 288)))
(assert (= "6" (str.at var36 962)))
(assert (= "," (str.at var33 800)))
(assert (= "n" (str.at var32 638)))
(assert (= "6" (str.at var3 418)))
(assert (= "n" (str.at var16 217)))
(assert (= "9" (str.at var52 750)))
(assert (= "_" (str.at var17 387)))
(assert (= "k" (str.at var6 492)))
(assert (= "{" (str.at var35 715)))
(assert (= "R" (str.at var49 159)))
(assert (= "b" (str.at var11 594)))
(assert (= "E" (str.at var9 751)))
(assert (= "-" (str.at var44 776)))
(assert (= "u" (str.at var18 354)))
(assert (= "L" (str.at var40 233)))
(assert (= "s" (str.at var10 177)))
(assert (= "=" (str.at var45 894)))
(assert (= "E" (str.at var59 759)))
(assert (= "K" (str.at var37 664)))
(assert (= "#" (str.at var8 118)))
(assert (= "F" (str.at var1 843)))
(assert (= "`" (str.at var29 812)))
(assert (= "A" (str.at var3 24)))
(assert (= "R" (str.at var25 623)))
(assert (= "f" (str.at var38 148)))
(assert (= "*" (str.at var23 952)))
(assert (= "i" (str.at var30 676)))
(assert (= "I" (str.at var43 38)))
(assert (= "^" (str.at var50 184)))
(assert (= "P" (str.at var23 359)))
(assert (= "o" (str.at var44 453)))
(assert (= "M" (str.at var40 705)))
(assert (= "2" (str.at var57 564)))
(assert (= "7" (str.at var2 161)))
(assert (= "#" (str.at var59 399)))
(assert (= "]" (str.at var8 18)))
(assert (= "'" (str.at var30 378)))
(assert (= "~" (str.at var0 485)))
(assert (= "G" (str.at var56 557)))
(assert (= "a" (str.at var3 671)))
(assert (= "I" (str.at var30 538)))
(assert (= "e" (str.at var6 664)))
(assert (= "y" (str.at var7 835)))
(assert (= "5" (str.at var38 560)))
(assert (= "+" (str.at var13 419)))
(assert (= "J" (str.at var18 888)))
(assert (= "`" (str.at var9 47)))
(assert (= "0" (str.at var10 935)))
(assert (= "{" (str.at var43 861)))
(assert (= "o" (str.at var50 503)))
(assert (= "=" (str.at var50 535)))
(assert (= "o" (str.at var49 499)))
(assert (= "_" (str.at var47 720)))
(assert (= "O" (str.at var53 693)))
(assert (= "F" (str.at var27 919)))
(assert (= "N" (str.at var38 758)))
(assert (= "m" (str.at var54 90)))
(assert (= "9" (str.at var28 319)))
(assert (= "," (str.at var53 110)))
(assert (= ":" (str.at var53 778)))
(assert (= "w" (str.at var5 210)))
(assert (= "x" (str.at var54 850)))
(assert (= "E" (str.at var29 719)))
(assert (= "K" (str.at var46 207)))
(assert (= "j" (str.at var0 206)))
(assert (= "Q" (str.at var17 306)))
(assert (= "q" (str.at var20 524)))
(assert (= "[" (str.at var31 10)))
(assert (= "A" (str.at var21 1000)))
(assert (= "Q" (str.at var39 653)))
(assert (= "L" (str.at var20 564)))
(assert (= "<" (str.at var0 415)))
(assert (= "h" (str.at var54 226)))
(assert (= "<" (str.at var58 875)))
(assert (= "6" (str.at var45 789)))
(assert (= "?" (str.at var26 359)))
(assert (= "S" (str.at var13 718)))
(assert (= "h" (str.at var16 756)))
(assert (= "y" (str.at var11 407)))
(assert (= "Z" (str.at var34 766)))
(assert (= "_" (str.at var21 638)))
(assert (= "z" (str.at var26 265)))
(assert (= "3" (str.at var33 644)))
(assert (= "." (str.at var47 238)))
(assert (= "Z" (str.at var31 996)))
(assert (= "w" (str.at var31 858)))
(assert (= """" (str.at var20 180)))
(assert (= "L" (str.at var51 721)))
(assert (= "y" (str.at var24 184)))
(assert (= "7" (str.at var19 386)))
(assert (= "J" (str.at var32 720)))
(assert (= "2" (str.at var37 527)))
(assert (= "z" (str.at var36 663)))
(assert (= "R" (str.at var29 443)))
(assert (= "Q" (str.at var5 420)))
(assert (= "9" (str.at var7 321)))
(assert (= "p" (str.at var15 23)))
(assert (= "/" (str.at var33 246)))
(assert (= "!" (str.at var36 756)))
(assert (= "W" (str.at var52 77)))
(assert (= "S" (str.at var0 960)))
(assert (= "q" (str.at var8 725)))
(assert (= "K" (str.at var40 624)))
(assert (= "$" (str.at var49 679)))
(assert (= "C" (str.at var27 790)))
(assert (= "d" (str.at var59 813)))
(assert (= "X" (str.at var34 340)))
(assert (= "k" (str.at var59 593)))
(assert (= "0" (str.at var11 599)))
(assert (= "q" (str.at var2 947)))
(assert (= "d" (str.at var40 87)))
(assert (= "'" (str.at var24 329)))
(assert (= "S" (str.at var58 388)))
(assert (= "2" (str.at var51 129)))
(assert (= "5" (str.at var34 972)))
(assert (= "I" (str.at var49 539)))
(assert (= "=" (str.at var58 774)))
(assert (= "h" (str.at var13 699)))
(assert (= "o" (str.at var16 822)))
(assert (= "y" (str.at var38 975)))
(assert (= "_" (str.at var39 870)))
(assert (= "t" (str.at var31 993)))
(assert (= "b" (str.at var44 780)))
(assert (= "r" (str.at var15 449)))
(assert (= "p" (str.at var11 297)))
(assert (= "U" (str.at var55 386)))
(assert (= "q" (str.at var54 428)))
(assert (= "G" (str.at var1 983)))
(assert (= "1" (str.at var41 924)))
(assert (= "h" (str.at var25 432)))
(assert (= ";" (str.at var44 885)))
(assert (= "w" (str.at var36 798)))
(assert (= "P" (str.at var0 792)))
(assert (= "?" (str.at var11 45)))
(assert (= "!" (str.at var37 910)))
(assert (= """" (str.at var41 765)))
(assert (= "\\" (str.at var45 845)))
(assert (= "8" (str.at var51 87)))
(assert (= "F" (str.at var41 346)))
(assert (= "-" (str.at var30 825)))
(assert (= "t" (str.at var48 488)))
(assert (= "B" (str.at var16 297)))
(assert (= "D" (str.at var33 834)))
(assert (= "n" (str.at var60 188)))
(assert (= "9" (str.at var12 987)))
(assert (= "E" (str.at var11 849)))
(assert (= "6" (str.at var57 715)))
(assert (= "t" (str.at var47 962)))
(assert (= "!" (str.at var48 133)))
(assert (= "e" (str.at var49 742)))
(assert (= "h" (str.at var9 343)))
(assert (= "/" (str.at var19 173)))
(assert (= "1" (str.at var50 8)))
(assert (= "g" (str.at var20 645)))
(assert (= "S" (str.at var20 148)))
(assert (= "d" (str.at var27 597)))
(check-sat)